maximize
OBJ:100x0 + 100x1 + 100x2 + 100x3 + 100x4 + 100x5 + 100x6 + 100x7 + 100x8 + 100x9 + 100x10 + 100x11 + 100x12 + 100x13 + 100x14 + 100x15 + 100x16 + 100x17 + 100x18 + 100x19 + 100x20 + 100x21 + 100x22 + 100x23 + 100x24 + 100x25 + 100x26 + 100x27 + 100x28 + 100x29 + 100x30 + 100x31 + 100x32 + 100x33 + 100x34 + 100x35 + 100x36 + 100x37 + 100x38 + 100x39 + 100x40 + 100x41 + 100x42 + 100x43 + 100x44 + 100x45 + 100x46 + 100x47 + 100x48 + 100x49 + 100x50 + 100x51 + 100x52 + 100x53 + 100x54 + 100x55 + 100x56 + 100x57 + 100x58 + 100x59 + 100x60 + 100x61 + 100x62 + 100x63 + 100x64 + 100x65 + 100x66 + 100x67 + 100x68 + 100x69 - y55_57 - y47_53 - y15_30 - y7_26 - y18_26 - y26_39 - y28_67 - y40_41 - y0_23 - y40_68 - y21_64 - y41_42 - y33_38 - y10_45 - y33_47 - y44_47 - y10_54 - y25_52 - y51_64 - y25_61 - y14_24 - y32_69 - y24_65 - y3_42 - y14_42 - y47_48 - y7_30 - y36_66 - y5_60 - y9_58 - y5_69 - y29_36 - y9_67 - y21_32 - y48_49 - y29_45 - y21_41 - y29_54 - y29_63 - y10_22 - y10_31 - y62_69 - y54_65 - y10_40 - y2_36 - y25_38 - y3_19 - y14_19 - y43_55 - y13_51 - y32_64 - y43_64 - y14_37 - y16_56 - y13_69 - y17_39 - y36_52 - y47_52 - y36_61 - y59_63 - y9_53 - y6_29 - y58_67 - y2_13 - y10_26 - y39_62 - y2_31 - y31_67 - y32_41 - y2_49 - y32_50 - y13_46 - y24_46 - y3_23 - y14_32 - y16_51 - y32_68 - y24_64 - y16_60 - y36_38 - y16_69 - y17_34 - y5_41 - y28_43 - y47_56 - y47_65 - y9_48 - y17_61 - y21_22 - y50_58 - y2_8 - y39_57 - y20_62 - y10_39 - y12_58 - y23_58 - y12_67 - y23_67 - y43_45 - y3_18 - y14_18 - y51_67 - y43_63 - y13_59 - y16_55 - y17_20 - y36_51 - y5_45 - y28_47 - y9_43 - y17_56 - y28_56 - y50_53 - y29_30 - y58_66 - y9_61 - y42_58 - y21_35 - y19_65 - y42_67 - y10_25 - y2_21 - y31_57 - y54_59 - y23_53 - y31_66 - y12_62 - y13_27 - y23_62 - y3_4 - y51_53 - y24_36 - y4_67 - y16_32 - y1_43 - y13_45 - y24_45 - y1_52 - y13_54 - y13_63 - y24_63 - y17_24 - y57_69 - y68_69 - y38_65 - y5_40 - y9_38 - y9_47 - y5_58 - y6_23 - y27_55 - y50_66 - y19_60 - y11_56 - y8_69 - y19_69 - y0_65 - y10_11 - y2_7 - y31_43 - y2_16 - y31_52 - y20_61 - y4_44 - y12_57 - y12_66 - y13_31 - y23_66 - y4_62 - y43_44 - y13_40 - y43_53 - y24_49 - y16_45 - y1_56 - y35_58 - y65_68 - y38_51 - y57_64 - y38_60 - y5_35 - y5_44 - y50_52 - y19_46 - y30_46 - y27_59 - y42_48 - y19_55 - y0_51 - y19_64 - y20_38 - y31_38 - y11_69 - y39_51 - y20_47 - y12_43 - y13_17 - y12_61 - y1_33 - y16_31 - y13_44 - y24_44 - y16_49 - y57_59 - y15_53 - y26_53 - y38_55 - y49_55 - y9_28 - y26_62 - y5_39 - y49_64 - y27_36 - y6_13 - y7_67 - y8_32 - y18_67 - y27_45 - y19_41 - y11_37 - y30_50 - y42_52 - y27_63 - y30_59 - y42_61 - y8_68 - y20_33 - y30_68 - y11_64 - y31_33 - y20_42 - y4_25 - y31_42 - y20_51 - y53_57 - y4_52 - y45_53 - y1_28 - y64_66 - y4_61 - y16_26 - y22_60 - y37_58 - y38_41 - y5_16 - y46_54 - y26_57 - y38_59 - y15_66 - y27_40 - y8_36 - y8_54 - y19_54 - y0_50 - y20_28 - y60_64 - y11_59 - y39_41 - y41_60 - y52_60 - y4_20 - y11_68 - y23_42 - y1_14 - y13_16 - y37_44 - y16_21 - y22_55 - y34_66 - y45_66 - y37_62 - y26_34 - y26_43 - y46_58 - y18_39 - y15_52 - y38_54 - y18_48 - y8_13 - y15_61 - y38_63 - y49_63 - y18_57 - y0_18 - y48_67 - y27_44 - y63_65 - y27_53 - y0_36 - y19_49 - y11_45 - y4_6 - y12_19 - y20_32 - y4_24 - y4_33 - y2_63 - y25_65 - y34_43 - y53_56 - y22_50 - y34_52 - y15_20 - y22_68 - y0_4 - y26_65 - y0_13 - y11_13 - y19_26 - y27_39 - y21_63 - y0_40 - y4_10 - y33_46 - y44_55 - y25_51 - y10_62 - y33_64 - y44_64 - y22_36 - y34_38 - y1_13 - y25_69 - y22_45 - y7_20 - y15_33 - y26_33 - y7_29 - y18_29 - y26_42 - y59_67 - y7_38 - y18_38 - y26_51 - y0_8 - y0_17 - y11_17 - y63_64 - y52_54 - y33_50 - y52_63 - y25_55 - y10_66 - y22_31 - y3_36 - y34_51 - y45_51 - y14_63 - y15_28 - y7_24 - y26_46 - y48_61 - y21_44 - y29_57 - y6_64 - y40_66 - y63_68 - y25_32 - y33_45 - y25_59 - y14_22 - y14_31 - y3_40 - y37_42 - y14_49 - y7_10 - y15_23 - y55_59 - y7_19 - y36_55 - y26_32 - y47_55 - y55_68 - y18_28 - y47_64 - y59_66 - y17_60 - y28_60 - y9_56 - y8_11 - y29_43 - y40_52 - y40_61 - y10_20 - y10_38 - y10_47 - y2_43 - y51_57 - y2_52 - y3_17 - y2_61 - y24_58 - y3_35 - y13_67 - y14_44 - y16_63 - y15_18 - y47_50 - y47_59 - y9_42 - y17_55 - y36_68 - y9_51 - y17_64 - y28_64 - y21_25 - y6_36 - y21_34 - y40_47 - y2_20 - y39_69 - y20_65 - y54_67 - y2_38 - y25_40 - y51_61 - y3_21 - y14_21 - y32_57 - y13_53 - y24_53 - y3_30 - y14_30 - y43_57 - y43_66 - y28_32 - y7_9 - y17_41 - y28_41 - y17_50 - y36_63 - y47_63 - y28_59 - y58_60 - y9_55 - y29_33 - y9_64 - y21_29 - y6_49 - y2_24 - y31_60 - y20_69 - y25_35 - y31_69 - y51_56 - y24_39 - y13_48 - y3_25 - y14_25 - y1_55 - y35_57 - y35_66 - y5_34 - y17_36 - y36_49 - y47_49 - y5_43 - y47_58 - y28_54 - y5_61 - y9_59 - y29_37 - y21_33 - y50_69 - y39_50 - y20_46 - y31_46 - y2_19 - y20_55 - y54_57 - y32_38 - y23_69 - y24_34 - y51_60 - y1_41 - y32_56 - y43_56 - y16_48 - y1_59 - y13_61 - y28_40 - y9_36 - y17_49 - y28_49 - y5_56 - y27_62 - y61_64 - y19_67 - y11_63 - y10_18 - y2_14 - y31_50 - y23_46 - y31_59 - y12_55 - y23_55 - y12_64 - y23_64 - y24_29 - y51_55 - y1_36 - y1_45 - y46_53 - y16_61 - y5_24 - y36_39 - y38_58 - y15_65 - y38_67 - y5_42 - y28_44 - y27_57 - y30_53 - y50_68 - y8_62 - y19_62 - y20_27 - y11_58 - y39_40 - y42_64 - y31_36 - y31_45 - y4_37 - y20_63 - y31_63 - y13_24 - y32_37 - y12_68 - y24_33 - y16_29 - y1_40 - y35_42 - y1_49 - y24_51 - y35_51 - y5_10 - y1_58 - y17_21 - y46_57 - y9_17 - y38_53 - y46_66 - y9_26 - y49_62 - y5_37 - y7_65 - y8_39 - y30_39 - y42_50 - y27_61 - y0_44 - y50_63 - y19_57 - y11_53 - y8_66 - y30_66 - y12_27 - y31_40 - y23_36 - y12_45 - y12_54 - y53_55 - y4_50 - y1_26 - y1_35 - y35_37 - y34_69 - y1_44 - y46_52 - y15_55 - y26_55 - y5_32 - y38_57 - y15_64 - y38_66 - y7_60 - y8_25 - y27_38 - y18_69 - y8_34 - y42_45 - y27_65 - y0_48 - y11_48 - y19_61 - y30_61 - y11_57 - y12_22 - y20_35 - y0_66 - y41_67 - y31_44 - y12_40 - y23_40 - y13_14 - y34_46 - y13_23 - y53_59 - y45_55 - y3_58 - y37_60 - y5_9 - y15_41 - y9_16 - y15_59 - y38_61 - y15_68 - y26_68 - y27_33 - y8_29 - y27_42 - y11_25 - y8_38 - y19_38 - y11_34 - y30_47 - y42_49 - y0_43 - y11_43 - y8_56 - y20_30 - y52_62 - y44_58 - y16_23 - y3_53 - y14_53 - y34_68 - y45_68 - y14_62 - y26_27 - y37_64 - y18_32 - y18_50 - y8_15 - y7_59 - y19_24 - y0_20 - y11_20 - y18_68 - y0_29 - y11_29 - y8_42 - y29_65 - y11_38 - y20_25 - y33_53 - y23_30 - y52_66 - y1_2 - y10_69 - y22_43 - y3_39 - y22_52 - y34_54 - y37_50 - y7_18 - y3_66 - y14_66 - y15_31 - y18_27 - y59_65 - y26_49 - y18_45 - y11_15 - y0_24 - y29_60 - y19_37 - y30_37 - y0_33 - y6_67 - y41_52 - y4_12 - y41_61 - y4_21 - y10_55 - y33_57 - y2_51 - y33_66 - y44_66 - y1_6 - y25_62 - y22_38 - y2_69 - y14_34 - y7_13 - y3_61 - y14_61 - y15_26 - y18_22 - y26_35 - y7_31 - y18_31 - y36_67 - y47_67 - y9_68 - y29_46 - y40_46 - y29_55 - y30_32 - y21_60 - y52_56 - y4_16 - y33_52 - y41_65 - y25_48 - y44_61 - y22_24 - y3_20 - y14_20 - y22_33 - y25_66 - y3_29 - y34_44 - y3_47
 Subject to
C1: x0+x4-y0_4 <=1 
C2: x0+x5 <=1 
C3: x0+x8-y0_8 <=1 
C4: x0+x10 <=1 
C5: x0+x11 <=1 
C6: x0+x12 <=1 
C7: x0+x13-y0_13 <=1 
C8: x0+x14 <=1 
C9: x0+x17-y0_17 <=1 
C10: x0+x18-y0_18 <=1 
C11: x0+x19 <=1 
C12: x0+x20-y0_20 <=1 
C13: x0+x23-y0_23 <=1 
C14: x0+x24-y0_24 <=1 
C15: x0+x26 <=1 
C16: x0+x29-y0_29 <=1 
C17: x0+x31 <=1 
C18: x0+x32 <=1 
C19: x0+x33-y0_33 <=1 
C20: x0+x36-y0_36 <=1 
C21: x0+x37 <=1 
C22: x0+x39 <=1 
C23: x0+x40-y0_40 <=1 
C24: x0+x42 <=1 
C25: x0+x43-y0_43 <=1 
C26: x0+x44-y0_44 <=1 
C27: x0+x48-y0_48 <=1 
C28: x0+x49 <=1 
C29: x0+x50-y0_50 <=1 
C30: x0+x51-y0_51 <=1 
C31: x0+x53 <=1 
C32: x0+x55 <=1 
C33: x0+x58 <=1 
C34: x0+x61 <=1 
C35: x0+x62 <=1 
C36: x0+x65-y0_65 <=1 
C37: x0+x66-y0_66 <=1 
C38: x0+x67 <=1 
C39: x0+x69 <=1 
C40: x1+x2-y1_2 <=1 
C41: x1+x6-y1_6 <=1 
C42: x1+x8 <=1 
C43: x1+x10 <=1 
C44: x1+x13-y1_13 <=1 
C45: x1+x14-y1_14 <=1 
C46: x1+x15 <=1 
C47: x1+x17 <=1 
C48: x1+x18 <=1 
C49: x1+x21 <=1 
C50: x1+x23 <=1 
C51: x1+x26-y1_26 <=1 
C52: x1+x28-y1_28 <=1 
C53: x1+x30 <=1 
C54: x1+x33-y1_33 <=1 
C55: x1+x35-y1_35 <=1 
C56: x1+x36-y1_36 <=1 
C57: x1+x40-y1_40 <=1 
C58: x1+x41-y1_41 <=1 
C59: x1+x42 <=1 
C60: x1+x43-y1_43 <=1 
C61: x1+x44-y1_44 <=1 
C62: x1+x45-y1_45 <=1 
C63: x1+x47 <=1 
C64: x1+x49-y1_49 <=1 
C65: x1+x50 <=1 
C66: x1+x52-y1_52 <=1 
C67: x1+x55-y1_55 <=1 
C68: x1+x56-y1_56 <=1 
C69: x1+x57 <=1 
C70: x1+x58-y1_58 <=1 
C71: x1+x59-y1_59 <=1 
C72: x1+x61 <=1 
C73: x1+x62 <=1 
C74: x1+x63 <=1 
C75: x1+x64 <=1 
C76: x2+x3 <=1 
C77: x2+x4 <=1 
C78: x2+x5 <=1 
C79: x2+x7-y2_7 <=1 
C80: x2+x8-y2_8 <=1 
C81: x2+x9 <=1 
C82: x2+x10 <=1 
C83: x2+x13-y2_13 <=1 
C84: x2+x14-y2_14 <=1 
C85: x2+x15 <=1 
C86: x2+x16-y2_16 <=1 
C87: x2+x19-y2_19 <=1 
C88: x2+x20-y2_20 <=1 
C89: x2+x21-y2_21 <=1 
C90: x2+x22 <=1 
C91: x2+x24-y2_24 <=1 
C92: x2+x25 <=1 
C93: x2+x31-y2_31 <=1 
C94: x2+x33 <=1 
C95: x2+x36-y2_36 <=1 
C96: x2+x37 <=1 
C97: x2+x38-y2_38 <=1 
C98: x2+x39 <=1 
C99: x2+x41 <=1 
C100: x2+x42 <=1 
C101: x2+x43-y2_43 <=1 
C102: x2+x44 <=1 
C103: x2+x48 <=1 
C104: x2+x49-y2_49 <=1 
C105: x2+x51-y2_51 <=1 
C106: x2+x52-y2_52 <=1 
C107: x2+x55 <=1 
C108: x2+x58 <=1 
C109: x2+x60 <=1 
C110: x2+x61-y2_61 <=1 
C111: x2+x63-y2_63 <=1 
C112: x2+x64 <=1 
C113: x2+x65 <=1 
C114: x2+x66 <=1 
C115: x2+x69-y2_69 <=1 
C116: x3+x4-y3_4 <=1 
C117: x3+x5 <=1 
C118: x3+x10 <=1 
C119: x3+x14 <=1 
C120: x3+x15 <=1 
C121: x3+x17-y3_17 <=1 
C122: x3+x18-y3_18 <=1 
C123: x3+x19-y3_19 <=1 
C124: x3+x20-y3_20 <=1 
C125: x3+x21-y3_21 <=1 
C126: x3+x23-y3_23 <=1 
C127: x3+x25-y3_25 <=1 
C128: x3+x27 <=1 
C129: x3+x28 <=1 
C130: x3+x29-y3_29 <=1 
C131: x3+x30-y3_30 <=1 
C132: x3+x31 <=1 
C133: x3+x32 <=1 
C134: x3+x33 <=1 
C135: x3+x35-y3_35 <=1 
C136: x3+x36-y3_36 <=1 
C137: x3+x37 <=1 
C138: x3+x38 <=1 
C139: x3+x39-y3_39 <=1 
C140: x3+x40-y3_40 <=1 
C141: x3+x42-y3_42 <=1 
C142: x3+x43 <=1 
C143: x3+x44 <=1 
C144: x3+x46 <=1 
C145: x3+x47-y3_47 <=1 
C146: x3+x48 <=1 
C147: x3+x49 <=1 
C148: x3+x50 <=1 
C149: x3+x51 <=1 
C150: x3+x53-y3_53 <=1 
C151: x3+x54 <=1 
C152: x3+x57 <=1 
C153: x3+x58-y3_58 <=1 
C154: x3+x60 <=1 
C155: x3+x61-y3_61 <=1 
C156: x3+x62 <=1 
C157: x3+x64 <=1 
C158: x3+x65 <=1 
C159: x3+x66-y3_66 <=1 
C160: x3+x67 <=1 
C161: x4+x6-y4_6 <=1 
C162: x4+x10-y4_10 <=1 
C163: x4+x12-y4_12 <=1 
C164: x4+x15 <=1 
C165: x4+x16-y4_16 <=1 
C166: x4+x18 <=1 
C167: x4+x20-y4_20 <=1 
C168: x4+x21-y4_21 <=1 
C169: x4+x23 <=1 
C170: x4+x24-y4_24 <=1 
C171: x4+x25-y4_25 <=1 
C172: x4+x27 <=1 
C173: x4+x28 <=1 
C174: x4+x31 <=1 
C175: x4+x32 <=1 
C176: x4+x33-y4_33 <=1 
C177: x4+x37-y4_37 <=1 
C178: x4+x39 <=1 
C179: x4+x41 <=1 
C180: x4+x44-y4_44 <=1 
C181: x4+x45 <=1 
C182: x4+x47 <=1 
C183: x4+x48 <=1 
C184: x4+x50-y4_50 <=1 
C185: x4+x52-y4_52 <=1 
C186: x4+x53 <=1 
C187: x4+x56 <=1 
C188: x4+x58 <=1 
C189: x4+x59 <=1 
C190: x4+x60 <=1 
C191: x4+x61-y4_61 <=1 
C192: x4+x62-y4_62 <=1 
C193: x4+x65 <=1 
C194: x4+x66 <=1 
C195: x4+x67-y4_67 <=1 
C196: x4+x68 <=1 
C197: x4+x69 <=1 
C198: x5+x6 <=1 
C199: x5+x9-y5_9 <=1 
C200: x5+x10-y5_10 <=1 
C201: x5+x11 <=1 
C202: x5+x12 <=1 
C203: x5+x13 <=1 
C204: x5+x14 <=1 
C205: x5+x16-y5_16 <=1 
C206: x5+x17 <=1 
C207: x5+x19 <=1 
C208: x5+x20 <=1 
C209: x5+x22 <=1 
C210: x5+x23 <=1 
C211: x5+x24-y5_24 <=1 
C212: x5+x26 <=1 
C213: x5+x28 <=1 
C214: x5+x32-y5_32 <=1 
C215: x5+x34-y5_34 <=1 
C216: x5+x35-y5_35 <=1 
C217: x5+x36 <=1 
C218: x5+x37-y5_37 <=1 
C219: x5+x39-y5_39 <=1 
C220: x5+x40-y5_40 <=1 
C221: x5+x41-y5_41 <=1 
C222: x5+x42-y5_42 <=1 
C223: x5+x43-y5_43 <=1 
C224: x5+x44-y5_44 <=1 
C225: x5+x45-y5_45 <=1 
C226: x5+x47 <=1 
C227: x5+x50 <=1 
C228: x5+x56-y5_56 <=1 
C229: x5+x58-y5_58 <=1 
C230: x5+x60-y5_60 <=1 
C231: x5+x61-y5_61 <=1 
C232: x5+x62 <=1 
C233: x5+x64 <=1 
C234: x5+x65 <=1 
C235: x5+x68 <=1 
C236: x5+x69-y5_69 <=1 
C237: x6+x7 <=1 
C238: x6+x8 <=1 
C239: x6+x9 <=1 
C240: x6+x13-y6_13 <=1 
C241: x6+x17 <=1 
C242: x6+x18 <=1 
C243: x6+x22 <=1 
C244: x6+x23-y6_23 <=1 
C245: x6+x26 <=1 
C246: x6+x28 <=1 
C247: x6+x29-y6_29 <=1 
C248: x6+x30 <=1 
C249: x6+x31 <=1 
C250: x6+x33 <=1 
C251: x6+x35 <=1 
C252: x6+x36-y6_36 <=1 
C253: x6+x37 <=1 
C254: x6+x38 <=1 
C255: x6+x39 <=1 
C256: x6+x40 <=1 
C257: x6+x44 <=1 
C258: x6+x49-y6_49 <=1 
C259: x6+x52 <=1 
C260: x6+x54 <=1 
C261: x6+x55 <=1 
C262: x6+x56 <=1 
C263: x6+x59 <=1 
C264: x6+x61 <=1 
C265: x6+x62 <=1 
C266: x6+x63 <=1 
C267: x6+x64-y6_64 <=1 
C268: x6+x67-y6_67 <=1 
C269: x6+x68 <=1 
C270: x7+x8 <=1 
C271: x7+x9-y7_9 <=1 
C272: x7+x10-y7_10 <=1 
C273: x7+x13-y7_13 <=1 
C274: x7+x15 <=1 
C275: x7+x17 <=1 
C276: x7+x18-y7_18 <=1 
C277: x7+x19-y7_19 <=1 
C278: x7+x20-y7_20 <=1 
C279: x7+x23 <=1 
C280: x7+x24-y7_24 <=1 
C281: x7+x26-y7_26 <=1 
C282: x7+x27 <=1 
C283: x7+x28 <=1 
C284: x7+x29-y7_29 <=1 
C285: x7+x30-y7_30 <=1 
C286: x7+x31-y7_31 <=1 
C287: x7+x34 <=1 
C288: x7+x35 <=1 
C289: x7+x36 <=1 
C290: x7+x38-y7_38 <=1 
C291: x7+x39 <=1 
C292: x7+x40 <=1 
C293: x7+x42 <=1 
C294: x7+x43 <=1 
C295: x7+x45 <=1 
C296: x7+x49 <=1 
C297: x7+x51 <=1 
C298: x7+x53 <=1 
C299: x7+x55 <=1 
C300: x7+x56 <=1 
C301: x7+x59-y7_59 <=1 
C302: x7+x60-y7_60 <=1 
C303: x7+x62 <=1 
C304: x7+x63 <=1 
C305: x7+x65-y7_65 <=1 
C306: x7+x67-y7_67 <=1 
C307: x7+x68 <=1 
C308: x7+x69 <=1 
C309: x8+x10 <=1 
C310: x8+x11-y8_11 <=1 
C311: x8+x12 <=1 
C312: x8+x13-y8_13 <=1 
C313: x8+x14 <=1 
C314: x8+x15-y8_15 <=1 
C315: x8+x17 <=1 
C316: x8+x19 <=1 
C317: x8+x22 <=1 
C318: x8+x25-y8_25 <=1 
C319: x8+x27 <=1 
C320: x8+x28 <=1 
C321: x8+x29-y8_29 <=1 
C322: x8+x31 <=1 
C323: x8+x32-y8_32 <=1 
C324: x8+x34-y8_34 <=1 
C325: x8+x35 <=1 
C326: x8+x36-y8_36 <=1 
C327: x8+x38-y8_38 <=1 
C328: x8+x39-y8_39 <=1 
C329: x8+x40 <=1 
C330: x8+x42-y8_42 <=1 
C331: x8+x44 <=1 
C332: x8+x46 <=1 
C333: x8+x48 <=1 
C334: x8+x49 <=1 
C335: x8+x52 <=1 
C336: x8+x53 <=1 
C337: x8+x54-y8_54 <=1 
C338: x8+x56-y8_56 <=1 
C339: x8+x60 <=1 
C340: x8+x62-y8_62 <=1 
C341: x8+x63 <=1 
C342: x8+x65 <=1 
C343: x8+x66-y8_66 <=1 
C344: x8+x67 <=1 
C345: x8+x68-y8_68 <=1 
C346: x8+x69-y8_69 <=1 
C347: x9+x10 <=1 
C348: x9+x12 <=1 
C349: x9+x13 <=1 
C350: x9+x16-y9_16 <=1 
C351: x9+x17-y9_17 <=1 
C352: x9+x19 <=1 
C353: x9+x20 <=1 
C354: x9+x22 <=1 
C355: x9+x23 <=1 
C356: x9+x24 <=1 
C357: x9+x26-y9_26 <=1 
C358: x9+x27 <=1 
C359: x9+x28-y9_28 <=1 
C360: x9+x30 <=1 
C361: x9+x35 <=1 
C362: x9+x36-y9_36 <=1 
C363: x9+x37 <=1 
C364: x9+x38-y9_38 <=1 
C365: x9+x39 <=1 
C366: x9+x41 <=1 
C367: x9+x42-y9_42 <=1 
C368: x9+x43-y9_43 <=1 
C369: x9+x45 <=1 
C370: x9+x47-y9_47 <=1 
C371: x9+x48-y9_48 <=1 
C372: x9+x51-y9_51 <=1 
C373: x9+x53-y9_53 <=1 
C374: x9+x54 <=1 
C375: x9+x55-y9_55 <=1 
C376: x9+x56-y9_56 <=1 
C377: x9+x57 <=1 
C378: x9+x58-y9_58 <=1 
C379: x9+x59-y9_59 <=1 
C380: x9+x60 <=1 
C381: x9+x61-y9_61 <=1 
C382: x9+x64-y9_64 <=1 
C383: x9+x65 <=1 
C384: x9+x67-y9_67 <=1 
C385: x9+x68-y9_68 <=1 
C386: x9+x69 <=1 
C387: x10+x11-y10_11 <=1 
C388: x10+x13 <=1 
C389: x10+x16 <=1 
C390: x10+x18-y10_18 <=1 
C391: x10+x19 <=1 
C392: x10+x20-y10_20 <=1 
C393: x10+x22-y10_22 <=1 
C394: x10+x24 <=1 
C395: x10+x25-y10_25 <=1 
C396: x10+x26-y10_26 <=1 
C397: x10+x29 <=1 
C398: x10+x30 <=1 
C399: x10+x31-y10_31 <=1 
C400: x10+x35 <=1 
C401: x10+x37 <=1 
C402: x10+x38-y10_38 <=1 
C403: x10+x39-y10_39 <=1 
C404: x10+x40-y10_40 <=1 
C405: x10+x42 <=1 
C406: x10+x43 <=1 
C407: x10+x45-y10_45 <=1 
C408: x10+x46 <=1 
C409: x10+x47-y10_47 <=1 
C410: x10+x48 <=1 
C411: x10+x49 <=1 
C412: x10+x50 <=1 
C413: x10+x53 <=1 
C414: x10+x54-y10_54 <=1 
C415: x10+x55-y10_55 <=1 
C416: x10+x57 <=1 
C417: x10+x59 <=1 
C418: x10+x61 <=1 
C419: x10+x62-y10_62 <=1 
C420: x10+x64 <=1 
C421: x10+x65 <=1 
C422: x10+x66-y10_66 <=1 
C423: x10+x67 <=1 
C424: x10+x69-y10_69 <=1 
C425: x11+x13-y11_13 <=1 
C426: x11+x15-y11_15 <=1 
C427: x11+x16 <=1 
C428: x11+x17-y11_17 <=1 
C429: x11+x18 <=1 
C430: x11+x19 <=1 
C431: x11+x20-y11_20 <=1 
C432: x11+x22 <=1 
C433: x11+x25-y11_25 <=1 
C434: x11+x26 <=1 
C435: x11+x27 <=1 
C436: x11+x28 <=1 
C437: x11+x29-y11_29 <=1 
C438: x11+x30 <=1 
C439: x11+x32 <=1 
C440: x11+x34-y11_34 <=1 
C441: x11+x36 <=1 
C442: x11+x37-y11_37 <=1 
C443: x11+x38-y11_38 <=1 
C444: x11+x39 <=1 
C445: x11+x41 <=1 
C446: x11+x42 <=1 
C447: x11+x43-y11_43 <=1 
C448: x11+x45-y11_45 <=1 
C449: x11+x46 <=1 
C450: x11+x47 <=1 
C451: x11+x48-y11_48 <=1 
C452: x11+x50 <=1 
C453: x11+x51 <=1 
C454: x11+x53-y11_53 <=1 
C455: x11+x56-y11_56 <=1 
C456: x11+x57-y11_57 <=1 
C457: x11+x58-y11_58 <=1 
C458: x11+x59-y11_59 <=1 
C459: x11+x62 <=1 
C460: x11+x63-y11_63 <=1 
C461: x11+x64-y11_64 <=1 
C462: x11+x68-y11_68 <=1 
C463: x11+x69-y11_69 <=1 
C464: x12+x13 <=1 
C465: x12+x15 <=1 
C466: x12+x17 <=1 
C467: x12+x19-y12_19 <=1 
C468: x12+x22-y12_22 <=1 
C469: x12+x23 <=1 
C470: x12+x27-y12_27 <=1 
C471: x12+x28 <=1 
C472: x12+x29 <=1 
C473: x12+x31 <=1 
C474: x12+x32 <=1 
C475: x12+x34 <=1 
C476: x12+x35 <=1 
C477: x12+x36 <=1 
C478: x12+x40-y12_40 <=1 
C479: x12+x42 <=1 
C480: x12+x43-y12_43 <=1 
C481: x12+x45-y12_45 <=1 
C482: x12+x49 <=1 
C483: x12+x51 <=1 
C484: x12+x52 <=1 
C485: x12+x54-y12_54 <=1 
C486: x12+x55-y12_55 <=1 
C487: x12+x56 <=1 
C488: x12+x57-y12_57 <=1 
C489: x12+x58-y12_58 <=1 
C490: x12+x61-y12_61 <=1 
C491: x12+x62-y12_62 <=1 
C492: x12+x64-y12_64 <=1 
C493: x12+x65 <=1 
C494: x12+x66-y12_66 <=1 
C495: x12+x67-y12_67 <=1 
C496: x12+x68-y12_68 <=1 
C497: x12+x69 <=1 
C498: x13+x14-y13_14 <=1 
C499: x13+x16-y13_16 <=1 
C500: x13+x17-y13_17 <=1 
C501: x13+x20 <=1 
C502: x13+x23-y13_23 <=1 
C503: x13+x24-y13_24 <=1 
C504: x13+x25 <=1 
C505: x13+x26 <=1 
C506: x13+x27-y13_27 <=1 
C507: x13+x28 <=1 
C508: x13+x29 <=1 
C509: x13+x30 <=1 
C510: x13+x31-y13_31 <=1 
C511: x13+x35 <=1 
C512: x13+x40-y13_40 <=1 
C513: x13+x41 <=1 
C514: x13+x43 <=1 
C515: x13+x44-y13_44 <=1 
C516: x13+x45-y13_45 <=1 
C517: x13+x46-y13_46 <=1 
C518: x13+x47 <=1 
C519: x13+x48-y13_48 <=1 
C520: x13+x50 <=1 
C521: x13+x51-y13_51 <=1 
C522: x13+x52 <=1 
C523: x13+x53-y13_53 <=1 
C524: x13+x54-y13_54 <=1 
C525: x13+x55 <=1 
C526: x13+x57 <=1 
C527: x13+x58 <=1 
C528: x13+x59-y13_59 <=1 
C529: x13+x60 <=1 
C530: x13+x61-y13_61 <=1 
C531: x13+x63-y13_63 <=1 
C532: x13+x66 <=1 
C533: x13+x67-y13_67 <=1 
C534: x13+x69-y13_69 <=1 
C535: x14+x15 <=1 
C536: x14+x18-y14_18 <=1 
C537: x14+x19-y14_19 <=1 
C538: x14+x20-y14_20 <=1 
C539: x14+x21-y14_21 <=1 
C540: x14+x22-y14_22 <=1 
C541: x14+x24-y14_24 <=1 
C542: x14+x25-y14_25 <=1 
C543: x14+x26 <=1 
C544: x14+x27 <=1 
C545: x14+x29 <=1 
C546: x14+x30-y14_30 <=1 
C547: x14+x31-y14_31 <=1 
C548: x14+x32-y14_32 <=1 
C549: x14+x34-y14_34 <=1 
C550: x14+x37-y14_37 <=1 
C551: x14+x41 <=1 
C552: x14+x42-y14_42 <=1 
C553: x14+x44-y14_44 <=1 
C554: x14+x48 <=1 
C555: x14+x49-y14_49 <=1 
C556: x14+x50 <=1 
C557: x14+x53-y14_53 <=1 
C558: x14+x54 <=1 
C559: x14+x58 <=1 
C560: x14+x60 <=1 
C561: x14+x61-y14_61 <=1 
C562: x14+x62-y14_62 <=1 
C563: x14+x63-y14_63 <=1 
C564: x14+x65 <=1 
C565: x14+x66-y14_66 <=1 
C566: x14+x68 <=1 
C567: x15+x18-y15_18 <=1 
C568: x15+x20-y15_20 <=1 
C569: x15+x23-y15_23 <=1 
C570: x15+x24 <=1 
C571: x15+x25 <=1 
C572: x15+x26-y15_26 <=1 
C573: x15+x27 <=1 
C574: x15+x28-y15_28 <=1 
C575: x15+x30-y15_30 <=1 
C576: x15+x31-y15_31 <=1 
C577: x15+x32 <=1 
C578: x15+x33-y15_33 <=1 
C579: x15+x34 <=1 
C580: x15+x41-y15_41 <=1 
C581: x15+x43 <=1 
C582: x15+x44 <=1 
C583: x15+x45 <=1 
C584: x15+x46 <=1 
C585: x15+x49 <=1 
C586: x15+x52-y15_52 <=1 
C587: x15+x53-y15_53 <=1 
C588: x15+x55-y15_55 <=1 
C589: x15+x59-y15_59 <=1 
C590: x15+x60 <=1 
C591: x15+x61-y15_61 <=1 
C592: x15+x64-y15_64 <=1 
C593: x15+x65-y15_65 <=1 
C594: x15+x66-y15_66 <=1 
C595: x15+x68-y15_68 <=1 
C596: x16+x18 <=1 
C597: x16+x20 <=1 
C598: x16+x21-y16_21 <=1 
C599: x16+x22 <=1 
C600: x16+x23-y16_23 <=1 
C601: x16+x26-y16_26 <=1 
C602: x16+x28 <=1 
C603: x16+x29-y16_29 <=1 
C604: x16+x31-y16_31 <=1 
C605: x16+x32-y16_32 <=1 
C606: x16+x36 <=1 
C607: x16+x37 <=1 
C608: x16+x38 <=1 
C609: x16+x40 <=1 
C610: x16+x41 <=1 
C611: x16+x42 <=1 
C612: x16+x43 <=1 
C613: x16+x45-y16_45 <=1 
C614: x16+x47 <=1 
C615: x16+x48-y16_48 <=1 
C616: x16+x49-y16_49 <=1 
C617: x16+x51-y16_51 <=1 
C618: x16+x52 <=1 
C619: x16+x54 <=1 
C620: x16+x55-y16_55 <=1 
C621: x16+x56-y16_56 <=1 
C622: x16+x57 <=1 
C623: x16+x60-y16_60 <=1 
C624: x16+x61-y16_61 <=1 
C625: x16+x63-y16_63 <=1 
C626: x16+x64 <=1 
C627: x16+x67 <=1 
C628: x16+x68 <=1 
C629: x16+x69-y16_69 <=1 
C630: x17+x18 <=1 
C631: x17+x20-y17_20 <=1 
C632: x17+x21-y17_21 <=1 
C633: x17+x24-y17_24 <=1 
C634: x17+x26 <=1 
C635: x17+x27 <=1 
C636: x17+x28 <=1 
C637: x17+x32 <=1 
C638: x17+x34-y17_34 <=1 
C639: x17+x36-y17_36 <=1 
C640: x17+x38 <=1 
C641: x17+x39-y17_39 <=1 
C642: x17+x41-y17_41 <=1 
C643: x17+x42 <=1 
C644: x17+x43 <=1 
C645: x17+x46 <=1 
C646: x17+x47 <=1 
C647: x17+x48 <=1 
C648: x17+x49-y17_49 <=1 
C649: x17+x50-y17_50 <=1 
C650: x17+x51 <=1 
C651: x17+x53 <=1 
C652: x17+x54 <=1 
C653: x17+x55-y17_55 <=1 
C654: x17+x56-y17_56 <=1 
C655: x17+x57 <=1 
C656: x17+x59 <=1 
C657: x17+x60-y17_60 <=1 
C658: x17+x61-y17_61 <=1 
C659: x17+x63 <=1 
C660: x17+x64-y17_64 <=1 
C661: x17+x65 <=1 
C662: x17+x68 <=1 
C663: x18+x19 <=1 
C664: x18+x20 <=1 
C665: x18+x22-y18_22 <=1 
C666: x18+x24 <=1 
C667: x18+x25 <=1 
C668: x18+x26-y18_26 <=1 
C669: x18+x27-y18_27 <=1 
C670: x18+x28-y18_28 <=1 
C671: x18+x29-y18_29 <=1 
C672: x18+x30 <=1 
C673: x18+x31-y18_31 <=1 
C674: x18+x32-y18_32 <=1 
C675: x18+x34 <=1 
C676: x18+x35 <=1 
C677: x18+x37 <=1 
C678: x18+x38-y18_38 <=1 
C679: x18+x39-y18_39 <=1 
C680: x18+x40 <=1 
C681: x18+x41 <=1 
C682: x18+x45-y18_45 <=1 
C683: x18+x48-y18_48 <=1 
C684: x18+x50-y18_50 <=1 
C685: x18+x53 <=1 
C686: x18+x56 <=1 
C687: x18+x57-y18_57 <=1 
C688: x18+x58 <=1 
C689: x18+x59 <=1 
C690: x18+x62 <=1 
C691: x18+x63 <=1 
C692: x18+x64 <=1 
C693: x18+x66 <=1 
C694: x18+x67-y18_67 <=1 
C695: x18+x68-y18_68 <=1 
C696: x18+x69-y18_69 <=1 
C697: x19+x20 <=1 
C698: x19+x21 <=1 
C699: x19+x24-y19_24 <=1 
C700: x19+x26-y19_26 <=1 
C701: x19+x28 <=1 
C702: x19+x29 <=1 
C703: x19+x30 <=1 
C704: x19+x33 <=1 
C705: x19+x34 <=1 
C706: x19+x35 <=1 
C707: x19+x37-y19_37 <=1 
C708: x19+x38-y19_38 <=1 
C709: x19+x40 <=1 
C710: x19+x41-y19_41 <=1 
C711: x19+x43 <=1 
C712: x19+x44 <=1 
C713: x19+x46-y19_46 <=1 
C714: x19+x49-y19_49 <=1 
C715: x19+x50 <=1 
C716: x19+x54-y19_54 <=1 
C717: x19+x55-y19_55 <=1 
C718: x19+x57-y19_57 <=1 
C719: x19+x58 <=1 
C720: x19+x59 <=1 
C721: x19+x60-y19_60 <=1 
C722: x19+x61-y19_61 <=1 
C723: x19+x62-y19_62 <=1 
C724: x19+x63 <=1 
C725: x19+x64-y19_64 <=1 
C726: x19+x65-y19_65 <=1 
C727: x19+x67-y19_67 <=1 
C728: x19+x69-y19_69 <=1 
C729: x20+x21 <=1 
C730: x20+x25-y20_25 <=1 
C731: x20+x27-y20_27 <=1 
C732: x20+x28-y20_28 <=1 
C733: x20+x29 <=1 
C734: x20+x30-y20_30 <=1 
C735: x20+x31 <=1 
C736: x20+x32-y20_32 <=1 
C737: x20+x33-y20_33 <=1 
C738: x20+x35-y20_35 <=1 
C739: x20+x36 <=1 
C740: x20+x37 <=1 
C741: x20+x38-y20_38 <=1 
C742: x20+x41 <=1 
C743: x20+x42-y20_42 <=1 
C744: x20+x43 <=1 
C745: x20+x45 <=1 
C746: x20+x46-y20_46 <=1 
C747: x20+x47-y20_47 <=1 
C748: x20+x48 <=1 
C749: x20+x51-y20_51 <=1 
C750: x20+x52 <=1 
C751: x20+x54 <=1 
C752: x20+x55-y20_55 <=1 
C753: x20+x57 <=1 
C754: x20+x58 <=1 
C755: x20+x60 <=1 
C756: x20+x61-y20_61 <=1 
C757: x20+x62-y20_62 <=1 
C758: x20+x63-y20_63 <=1 
C759: x20+x64 <=1 
C760: x20+x65-y20_65 <=1 
C761: x20+x66 <=1 
C762: x20+x69-y20_69 <=1 
C763: x21+x22-y21_22 <=1 
C764: x21+x25-y21_25 <=1 
C765: x21+x27 <=1 
C766: x21+x28 <=1 
C767: x21+x29-y21_29 <=1 
C768: x21+x32-y21_32 <=1 
C769: x21+x33-y21_33 <=1 
C770: x21+x34-y21_34 <=1 
C771: x21+x35-y21_35 <=1 
C772: x21+x40 <=1 
C773: x21+x41-y21_41 <=1 
C774: x21+x42 <=1 
C775: x21+x43 <=1 
C776: x21+x44-y21_44 <=1 
C777: x21+x46 <=1 
C778: x21+x48 <=1 
C779: x21+x51 <=1 
C780: x21+x53 <=1 
C781: x21+x59 <=1 
C782: x21+x60-y21_60 <=1 
C783: x21+x63-y21_63 <=1 
C784: x21+x64-y21_64 <=1 
C785: x22+x24-y22_24 <=1 
C786: x22+x25 <=1 
C787: x22+x29 <=1 
C788: x22+x31-y22_31 <=1 
C789: x22+x32 <=1 
C790: x22+x33-y22_33 <=1 
C791: x22+x34 <=1 
C792: x22+x36-y22_36 <=1 
C793: x22+x38-y22_38 <=1 
C794: x22+x40 <=1 
C795: x22+x43-y22_43 <=1 
C796: x22+x44 <=1 
C797: x22+x45-y22_45 <=1 
C798: x22+x46 <=1 
C799: x22+x48 <=1 
C800: x22+x50-y22_50 <=1 
C801: x22+x51 <=1 
C802: x22+x52-y22_52 <=1 
C803: x22+x53 <=1 
C804: x22+x54 <=1 
C805: x22+x55-y22_55 <=1 
C806: x22+x56 <=1 
C807: x22+x58 <=1 
C808: x22+x59 <=1 
C809: x22+x60-y22_60 <=1 
C810: x22+x62 <=1 
C811: x22+x63 <=1 
C812: x22+x64 <=1 
C813: x22+x66 <=1 
C814: x22+x68-y22_68 <=1 
C815: x23+x27 <=1 
C816: x23+x28 <=1 
C817: x23+x29 <=1 
C818: x23+x30-y23_30 <=1 
C819: x23+x32 <=1 
C820: x23+x35 <=1 
C821: x23+x36-y23_36 <=1 
C822: x23+x40-y23_40 <=1 
C823: x23+x42-y23_42 <=1 
C824: x23+x46-y23_46 <=1 
C825: x23+x48 <=1 
C826: x23+x49 <=1 
C827: x23+x51 <=1 
C828: x23+x52 <=1 
C829: x23+x53-y23_53 <=1 
C830: x23+x54 <=1 
C831: x23+x55-y23_55 <=1 
C832: x23+x56 <=1 
C833: x23+x57 <=1 
C834: x23+x58-y23_58 <=1 
C835: x23+x60 <=1 
C836: x23+x62-y23_62 <=1 
C837: x23+x63 <=1 
C838: x23+x64-y23_64 <=1 
C839: x23+x66-y23_66 <=1 
C840: x23+x67-y23_67 <=1 
C841: x23+x69-y23_69 <=1 
C842: x24+x25 <=1 
C843: x24+x29-y24_29 <=1 
C844: x24+x30 <=1 
C845: x24+x31 <=1 
C846: x24+x32 <=1 
C847: x24+x33-y24_33 <=1 
C848: x24+x34-y24_34 <=1 
C849: x24+x36-y24_36 <=1 
C850: x24+x39-y24_39 <=1 
C851: x24+x41 <=1 
C852: x24+x43 <=1 
C853: x24+x44-y24_44 <=1 
C854: x24+x45-y24_45 <=1 
C855: x24+x46-y24_46 <=1 
C856: x24+x47 <=1 
C857: x24+x49-y24_49 <=1 
C858: x24+x51-y24_51 <=1 
C859: x24+x53-y24_53 <=1 
C860: x24+x54 <=1 
C861: x24+x57 <=1 
C862: x24+x58-y24_58 <=1 
C863: x24+x62 <=1 
C864: x24+x63-y24_63 <=1 
C865: x24+x64-y24_64 <=1 
C866: x24+x65-y24_65 <=1 
C867: x24+x66 <=1 
C868: x24+x68 <=1 
C869: x25+x32-y25_32 <=1 
C870: x25+x33 <=1 
C871: x25+x35-y25_35 <=1 
C872: x25+x38-y25_38 <=1 
C873: x25+x39 <=1 
C874: x25+x40-y25_40 <=1 
C875: x25+x41 <=1 
C876: x25+x43 <=1 
C877: x25+x44 <=1 
C878: x25+x48-y25_48 <=1 
C879: x25+x51-y25_51 <=1 
C880: x25+x52-y25_52 <=1 
C881: x25+x55-y25_55 <=1 
C882: x25+x57 <=1 
C883: x25+x59-y25_59 <=1 
C884: x25+x60 <=1 
C885: x25+x61-y25_61 <=1 
C886: x25+x62-y25_62 <=1 
C887: x25+x63 <=1 
C888: x25+x65-y25_65 <=1 
C889: x25+x66-y25_66 <=1 
C890: x25+x69-y25_69 <=1 
C891: x26+x27-y26_27 <=1 
C892: x26+x30 <=1 
C893: x26+x31 <=1 
C894: x26+x32-y26_32 <=1 
C895: x26+x33-y26_33 <=1 
C896: x26+x34-y26_34 <=1 
C897: x26+x35-y26_35 <=1 
C898: x26+x36 <=1 
C899: x26+x37 <=1 
C900: x26+x39-y26_39 <=1 
C901: x26+x40 <=1 
C902: x26+x41 <=1 
C903: x26+x42-y26_42 <=1 
C904: x26+x43-y26_43 <=1 
C905: x26+x46-y26_46 <=1 
C906: x26+x48 <=1 
C907: x26+x49-y26_49 <=1 
C908: x26+x51-y26_51 <=1 
C909: x26+x53-y26_53 <=1 
C910: x26+x55-y26_55 <=1 
C911: x26+x57-y26_57 <=1 
C912: x26+x58 <=1 
C913: x26+x59 <=1 
C914: x26+x60 <=1 
C915: x26+x61 <=1 
C916: x26+x62-y26_62 <=1 
C917: x26+x65-y26_65 <=1 
C918: x26+x68-y26_68 <=1 
C919: x26+x69 <=1 
C920: x27+x29 <=1 
C921: x27+x31 <=1 
C922: x27+x33-y27_33 <=1 
C923: x27+x35 <=1 
C924: x27+x36-y27_36 <=1 
C925: x27+x38-y27_38 <=1 
C926: x27+x39-y27_39 <=1 
C927: x27+x40-y27_40 <=1 
C928: x27+x41 <=1 
C929: x27+x42-y27_42 <=1 
C930: x27+x43 <=1 
C931: x27+x44-y27_44 <=1 
C932: x27+x45-y27_45 <=1 
C933: x27+x48 <=1 
C934: x27+x49 <=1 
C935: x27+x51 <=1 
C936: x27+x52 <=1 
C937: x27+x53-y27_53 <=1 
C938: x27+x55-y27_55 <=1 
C939: x27+x56 <=1 
C940: x27+x57-y27_57 <=1 
C941: x27+x58 <=1 
C942: x27+x59-y27_59 <=1 
C943: x27+x61-y27_61 <=1 
C944: x27+x62-y27_62 <=1 
C945: x27+x63-y27_63 <=1 
C946: x27+x65-y27_65 <=1 
C947: x27+x66 <=1 
C948: x27+x67 <=1 
C949: x27+x68 <=1 
C950: x27+x69 <=1 
C951: x28+x29 <=1 
C952: x28+x32-y28_32 <=1 
C953: x28+x35 <=1 
C954: x28+x36 <=1 
C955: x28+x38 <=1 
C956: x28+x40-y28_40 <=1 
C957: x28+x41-y28_41 <=1 
C958: x28+x42 <=1 
C959: x28+x43-y28_43 <=1 
C960: x28+x44-y28_44 <=1 
C961: x28+x45 <=1 
C962: x28+x47-y28_47 <=1 
C963: x28+x48 <=1 
C964: x28+x49-y28_49 <=1 
C965: x28+x53 <=1 
C966: x28+x54-y28_54 <=1 
C967: x28+x56-y28_56 <=1 
C968: x28+x57 <=1 
C969: x28+x59-y28_59 <=1 
C970: x28+x60-y28_60 <=1 
C971: x28+x63 <=1 
C972: x28+x64-y28_64 <=1 
C973: x28+x66 <=1 
C974: x28+x67-y28_67 <=1 
C975: x29+x30-y29_30 <=1 
C976: x29+x31 <=1 
C977: x29+x33-y29_33 <=1 
C978: x29+x36-y29_36 <=1 
C979: x29+x37-y29_37 <=1 
C980: x29+x39 <=1 
C981: x29+x42 <=1 
C982: x29+x43-y29_43 <=1 
C983: x29+x44 <=1 
C984: x29+x45-y29_45 <=1 
C985: x29+x46-y29_46 <=1 
C986: x29+x52 <=1 
C987: x29+x53 <=1 
C988: x29+x54-y29_54 <=1 
C989: x29+x55-y29_55 <=1 
C990: x29+x56 <=1 
C991: x29+x57-y29_57 <=1 
C992: x29+x60-y29_60 <=1 
C993: x29+x61 <=1 
C994: x29+x63-y29_63 <=1 
C995: x29+x64 <=1 
C996: x29+x65-y29_65 <=1 
C997: x29+x66 <=1 
C998: x29+x67 <=1 
C999: x29+x68 <=1 
C1000: x29+x69 <=1 
C1001: x30+x31 <=1 
C1002: x30+x32-y30_32 <=1 
C1003: x30+x35 <=1 
C1004: x30+x36 <=1 
C1005: x30+x37-y30_37 <=1 
C1006: x30+x38 <=1 
C1007: x30+x39-y30_39 <=1 
C1008: x30+x40 <=1 
C1009: x30+x41 <=1 
C1010: x30+x45 <=1 
C1011: x30+x46-y30_46 <=1 
C1012: x30+x47-y30_47 <=1 
C1013: x30+x49 <=1 
C1014: x30+x50-y30_50 <=1 
C1015: x30+x53-y30_53 <=1 
C1016: x30+x54 <=1 
C1017: x30+x59-y30_59 <=1 
C1018: x30+x61-y30_61 <=1 
C1019: x30+x62 <=1 
C1020: x30+x63 <=1 
C1021: x30+x66-y30_66 <=1 
C1022: x30+x67 <=1 
C1023: x30+x68-y30_68 <=1 
C1024: x31+x33-y31_33 <=1 
C1025: x31+x36-y31_36 <=1 
C1026: x31+x38-y31_38 <=1 
C1027: x31+x40-y31_40 <=1 
C1028: x31+x41 <=1 
C1029: x31+x42-y31_42 <=1 
C1030: x31+x43-y31_43 <=1 
C1031: x31+x44-y31_44 <=1 
C1032: x31+x45-y31_45 <=1 
C1033: x31+x46-y31_46 <=1 
C1034: x31+x49 <=1 
C1035: x31+x50-y31_50 <=1 
C1036: x31+x51 <=1 
C1037: x31+x52-y31_52 <=1 
C1038: x31+x55 <=1 
C1039: x31+x56 <=1 
C1040: x31+x57-y31_57 <=1 
C1041: x31+x59-y31_59 <=1 
C1042: x31+x60-y31_60 <=1 
C1043: x31+x61 <=1 
C1044: x31+x63-y31_63 <=1 
C1045: x31+x64 <=1 
C1046: x31+x66-y31_66 <=1 
C1047: x31+x67-y31_67 <=1 
C1048: x31+x69-y31_69 <=1 
C1049: x32+x35 <=1 
C1050: x32+x37-y32_37 <=1 
C1051: x32+x38-y32_38 <=1 
C1052: x32+x39 <=1 
C1053: x32+x41-y32_41 <=1 
C1054: x32+x46 <=1 
C1055: x32+x49 <=1 
C1056: x32+x50-y32_50 <=1 
C1057: x32+x53 <=1 
C1058: x32+x54 <=1 
C1059: x32+x56-y32_56 <=1 
C1060: x32+x57-y32_57 <=1 
C1061: x32+x59 <=1 
C1062: x32+x61 <=1 
C1063: x32+x62 <=1 
C1064: x32+x64-y32_64 <=1 
C1065: x32+x66 <=1 
C1066: x32+x68-y32_68 <=1 
C1067: x32+x69-y32_69 <=1 
C1068: x33+x35 <=1 
C1069: x33+x36 <=1 
C1070: x33+x38-y33_38 <=1 
C1071: x33+x39 <=1 
C1072: x33+x45-y33_45 <=1 
C1073: x33+x46-y33_46 <=1 
C1074: x33+x47-y33_47 <=1 
C1075: x33+x48 <=1 
C1076: x33+x50-y33_50 <=1 
C1077: x33+x52-y33_52 <=1 
C1078: x33+x53-y33_53 <=1 
C1079: x33+x54 <=1 
C1080: x33+x56 <=1 
C1081: x33+x57-y33_57 <=1 
C1082: x33+x60 <=1 
C1083: x33+x63 <=1 
C1084: x33+x64-y33_64 <=1 
C1085: x33+x65 <=1 
C1086: x33+x66-y33_66 <=1 
C1087: x33+x68 <=1 
C1088: x34+x35 <=1 
C1089: x34+x36 <=1 
C1090: x34+x37 <=1 
C1091: x34+x38-y34_38 <=1 
C1092: x34+x39 <=1 
C1093: x34+x41 <=1 
C1094: x34+x42 <=1 
C1095: x34+x43-y34_43 <=1 
C1096: x34+x44-y34_44 <=1 
C1097: x34+x46-y34_46 <=1 
C1098: x34+x49 <=1 
C1099: x34+x50 <=1 
C1100: x34+x51-y34_51 <=1 
C1101: x34+x52-y34_52 <=1 
C1102: x34+x53 <=1 
C1103: x34+x54-y34_54 <=1 
C1104: x34+x55 <=1 
C1105: x34+x56 <=1 
C1106: x34+x58 <=1 
C1107: x34+x61 <=1 
C1108: x34+x62 <=1 
C1109: x34+x64 <=1 
C1110: x34+x65 <=1 
C1111: x34+x66-y34_66 <=1 
C1112: x34+x67 <=1 
C1113: x34+x68-y34_68 <=1 
C1114: x34+x69-y34_69 <=1 
C1115: x35+x37-y35_37 <=1 
C1116: x35+x39 <=1 
C1117: x35+x42-y35_42 <=1 
C1118: x35+x45 <=1 
C1119: x35+x50 <=1 
C1120: x35+x51-y35_51 <=1 
C1121: x35+x53 <=1 
C1122: x35+x55 <=1 
C1123: x35+x56 <=1 
C1124: x35+x57-y35_57 <=1 
C1125: x35+x58-y35_58 <=1 
C1126: x35+x59 <=1 
C1127: x35+x66-y35_66 <=1 
C1128: x35+x67 <=1 
C1129: x36+x37 <=1 
C1130: x36+x38-y36_38 <=1 
C1131: x36+x39-y36_39 <=1 
C1132: x36+x40 <=1 
C1133: x36+x43 <=1 
C1134: x36+x46 <=1 
C1135: x36+x47 <=1 
C1136: x36+x48 <=1 
C1137: x36+x49-y36_49 <=1 
C1138: x36+x50 <=1 
C1139: x36+x51-y36_51 <=1 
C1140: x36+x52-y36_52 <=1 
C1141: x36+x53 <=1 
C1142: x36+x55-y36_55 <=1 
C1143: x36+x57 <=1 
C1144: x36+x58 <=1 
C1145: x36+x59 <=1 
C1146: x36+x60 <=1 
C1147: x36+x61-y36_61 <=1 
C1148: x36+x63-y36_63 <=1 
C1149: x36+x65 <=1 
C1150: x36+x66-y36_66 <=1 
C1151: x36+x67-y36_67 <=1 
C1152: x36+x68-y36_68 <=1 
C1153: x37+x40 <=1 
C1154: x37+x41 <=1 
C1155: x37+x42-y37_42 <=1 
C1156: x37+x43 <=1 
C1157: x37+x44-y37_44 <=1 
C1158: x37+x49 <=1 
C1159: x37+x50-y37_50 <=1 
C1160: x37+x52 <=1 
C1161: x37+x53 <=1 
C1162: x37+x55 <=1 
C1163: x37+x56 <=1 
C1164: x37+x58-y37_58 <=1 
C1165: x37+x59 <=1 
C1166: x37+x60-y37_60 <=1 
C1167: x37+x62-y37_62 <=1 
C1168: x37+x64-y37_64 <=1 
C1169: x37+x67 <=1 
C1170: x38+x41-y38_41 <=1 
C1171: x38+x42 <=1 
C1172: x38+x44 <=1 
C1173: x38+x47 <=1 
C1174: x38+x49 <=1 
C1175: x38+x51-y38_51 <=1 
C1176: x38+x52 <=1 
C1177: x38+x53-y38_53 <=1 
C1178: x38+x54-y38_54 <=1 
C1179: x38+x55-y38_55 <=1 
C1180: x38+x56 <=1 
C1181: x38+x57-y38_57 <=1 
C1182: x38+x58-y38_58 <=1 
C1183: x38+x59-y38_59 <=1 
C1184: x38+x60-y38_60 <=1 
C1185: x38+x61-y38_61 <=1 
C1186: x38+x63-y38_63 <=1 
C1187: x38+x65-y38_65 <=1 
C1188: x38+x66-y38_66 <=1 
C1189: x38+x67-y38_67 <=1 
C1190: x38+x68 <=1 
C1191: x39+x40-y39_40 <=1 
C1192: x39+x41-y39_41 <=1 
C1193: x39+x45 <=1 
C1194: x39+x47 <=1 
C1195: x39+x49 <=1 
C1196: x39+x50-y39_50 <=1 
C1197: x39+x51-y39_51 <=1 
C1198: x39+x54 <=1 
C1199: x39+x57-y39_57 <=1 
C1200: x39+x59 <=1 
C1201: x39+x62-y39_62 <=1 
C1202: x39+x64 <=1 
C1203: x39+x69-y39_69 <=1 
C1204: x40+x41-y40_41 <=1 
C1205: x40+x43 <=1 
C1206: x40+x44 <=1 
C1207: x40+x46-y40_46 <=1 
C1208: x40+x47-y40_47 <=1 
C1209: x40+x48 <=1 
C1210: x40+x49 <=1 
C1211: x40+x50 <=1 
C1212: x40+x51 <=1 
C1213: x40+x52-y40_52 <=1 
C1214: x40+x54 <=1 
C1215: x40+x56 <=1 
C1216: x40+x60 <=1 
C1217: x40+x61-y40_61 <=1 
C1218: x40+x64 <=1 
C1219: x40+x65 <=1 
C1220: x40+x66-y40_66 <=1 
C1221: x40+x67 <=1 
C1222: x40+x68-y40_68 <=1 
C1223: x41+x42-y41_42 <=1 
C1224: x41+x43 <=1 
C1225: x41+x44 <=1 
C1226: x41+x45 <=1 
C1227: x41+x46 <=1 
C1228: x41+x48 <=1 
C1229: x41+x49 <=1 
C1230: x41+x50 <=1 
C1231: x41+x51 <=1 
C1232: x41+x52-y41_52 <=1 
C1233: x41+x54 <=1 
C1234: x41+x57 <=1 
C1235: x41+x59 <=1 
C1236: x41+x60-y41_60 <=1 
C1237: x41+x61-y41_61 <=1 
C1238: x41+x63 <=1 
C1239: x41+x65-y41_65 <=1 
C1240: x41+x67-y41_67 <=1 
C1241: x41+x68 <=1 
C1242: x41+x69 <=1 
C1243: x42+x44 <=1 
C1244: x42+x45-y42_45 <=1 
C1245: x42+x46 <=1 
C1246: x42+x48-y42_48 <=1 
C1247: x42+x49-y42_49 <=1 
C1248: x42+x50-y42_50 <=1 
C1249: x42+x52-y42_52 <=1 
C1250: x42+x58-y42_58 <=1 
C1251: x42+x61-y42_61 <=1 
C1252: x42+x62 <=1 
C1253: x42+x63 <=1 
C1254: x42+x64-y42_64 <=1 
C1255: x42+x67-y42_67 <=1 
C1256: x42+x68 <=1 
C1257: x43+x44-y43_44 <=1 
C1258: x43+x45-y43_45 <=1 
C1259: x43+x46 <=1 
C1260: x43+x48 <=1 
C1261: x43+x51 <=1 
C1262: x43+x53-y43_53 <=1 
C1263: x43+x54 <=1 
C1264: x43+x55-y43_55 <=1 
C1265: x43+x56-y43_56 <=1 
C1266: x43+x57-y43_57 <=1 
C1267: x43+x58 <=1 
C1268: x43+x62 <=1 
C1269: x43+x63-y43_63 <=1 
C1270: x43+x64-y43_64 <=1 
C1271: x43+x65 <=1 
C1272: x43+x66-y43_66 <=1 
C1273: x43+x69 <=1 
C1274: x44+x45 <=1 
C1275: x44+x47-y44_47 <=1 
C1276: x44+x52 <=1 
C1277: x44+x54 <=1 
C1278: x44+x55-y44_55 <=1 
C1279: x44+x58-y44_58 <=1 
C1280: x44+x61-y44_61 <=1 
C1281: x44+x63 <=1 
C1282: x44+x64-y44_64 <=1 
C1283: x44+x65 <=1 
C1284: x44+x66-y44_66 <=1 
C1285: x45+x47 <=1 
C1286: x45+x49 <=1 
C1287: x45+x51-y45_51 <=1 
C1288: x45+x53-y45_53 <=1 
C1289: x45+x55-y45_55 <=1 
C1290: x45+x58 <=1 
C1291: x45+x59 <=1 
C1292: x45+x60 <=1 
C1293: x45+x61 <=1 
C1294: x45+x66-y45_66 <=1 
C1295: x45+x68-y45_68 <=1 
C1296: x45+x69 <=1 
C1297: x46+x48 <=1 
C1298: x46+x49 <=1 
C1299: x46+x50 <=1 
C1300: x46+x51 <=1 
C1301: x46+x52-y46_52 <=1 
C1302: x46+x53-y46_53 <=1 
C1303: x46+x54-y46_54 <=1 
C1304: x46+x57-y46_57 <=1 
C1305: x46+x58-y46_58 <=1 
C1306: x46+x59 <=1 
C1307: x46+x62 <=1 
C1308: x46+x65 <=1 
C1309: x46+x66-y46_66 <=1 
C1310: x47+x48-y47_48 <=1 
C1311: x47+x49-y47_49 <=1 
C1312: x47+x50-y47_50 <=1 
C1313: x47+x51 <=1 
C1314: x47+x52-y47_52 <=1 
C1315: x47+x53-y47_53 <=1 
C1316: x47+x55-y47_55 <=1 
C1317: x47+x56-y47_56 <=1 
C1318: x47+x58-y47_58 <=1 
C1319: x47+x59-y47_59 <=1 
C1320: x47+x63-y47_63 <=1 
C1321: x47+x64-y47_64 <=1 
C1322: x47+x65-y47_65 <=1 
C1323: x47+x67-y47_67 <=1 
C1324: x48+x49-y48_49 <=1 
C1325: x48+x51 <=1 
C1326: x48+x52 <=1 
C1327: x48+x53 <=1 
C1328: x48+x54 <=1 
C1329: x48+x57 <=1 
C1330: x48+x58 <=1 
C1331: x48+x61-y48_61 <=1 
C1332: x48+x62 <=1 
C1333: x48+x63 <=1 
C1334: x48+x64 <=1 
C1335: x48+x67-y48_67 <=1 
C1336: x48+x68 <=1 
C1337: x49+x50 <=1 
C1338: x49+x51 <=1 
C1339: x49+x54 <=1 
C1340: x49+x55-y49_55 <=1 
C1341: x49+x57 <=1 
C1342: x49+x58 <=1 
C1343: x49+x61 <=1 
C1344: x49+x62-y49_62 <=1 
C1345: x49+x63-y49_63 <=1 
C1346: x49+x64-y49_64 <=1 
C1347: x49+x66 <=1 
C1348: x49+x67 <=1 
C1349: x50+x52-y50_52 <=1 
C1350: x50+x53-y50_53 <=1 
C1351: x50+x55 <=1 
C1352: x50+x57 <=1 
C1353: x50+x58-y50_58 <=1 
C1354: x50+x59 <=1 
C1355: x50+x62 <=1 
C1356: x50+x63-y50_63 <=1 
C1357: x50+x65 <=1 
C1358: x50+x66-y50_66 <=1 
C1359: x50+x67 <=1 
C1360: x50+x68-y50_68 <=1 
C1361: x50+x69-y50_69 <=1 
C1362: x51+x53-y51_53 <=1 
C1363: x51+x55-y51_55 <=1 
C1364: x51+x56-y51_56 <=1 
C1365: x51+x57-y51_57 <=1 
C1366: x51+x58 <=1 
C1367: x51+x59 <=1 
C1368: x51+x60-y51_60 <=1 
C1369: x51+x61-y51_61 <=1 
C1370: x51+x63 <=1 
C1371: x51+x64-y51_64 <=1 
C1372: x51+x65 <=1 
C1373: x51+x67-y51_67 <=1 
C1374: x52+x54-y52_54 <=1 
C1375: x52+x55 <=1 
C1376: x52+x56-y52_56 <=1 
C1377: x52+x57 <=1 
C1378: x52+x60-y52_60 <=1 
C1379: x52+x61 <=1 
C1380: x52+x62-y52_62 <=1 
C1381: x52+x63-y52_63 <=1 
C1382: x52+x66-y52_66 <=1 
C1383: x52+x69 <=1 
C1384: x53+x55-y53_55 <=1 
C1385: x53+x56-y53_56 <=1 
C1386: x53+x57-y53_57 <=1 
C1387: x53+x59-y53_59 <=1 
C1388: x53+x60 <=1 
C1389: x53+x65 <=1 
C1390: x53+x66 <=1 
C1391: x54+x55 <=1 
C1392: x54+x57-y54_57 <=1 
C1393: x54+x59-y54_59 <=1 
C1394: x54+x61 <=1 
C1395: x54+x63 <=1 
C1396: x54+x64 <=1 
C1397: x54+x65-y54_65 <=1 
C1398: x54+x67-y54_67 <=1 
C1399: x54+x68 <=1 
C1400: x55+x56 <=1 
C1401: x55+x57-y55_57 <=1 
C1402: x55+x58 <=1 
C1403: x55+x59-y55_59 <=1 
C1404: x55+x60 <=1 
C1405: x55+x61 <=1 
C1406: x55+x67 <=1 
C1407: x55+x68-y55_68 <=1 
C1408: x56+x59 <=1 
C1409: x56+x60 <=1 
C1410: x56+x64 <=1 
C1411: x56+x65 <=1 
C1412: x56+x67 <=1 
C1413: x56+x69 <=1 
C1414: x57+x59-y57_59 <=1 
C1415: x57+x64-y57_64 <=1 
C1416: x57+x65 <=1 
C1417: x57+x66 <=1 
C1418: x57+x69-y57_69 <=1 
C1419: x58+x60-y58_60 <=1 
C1420: x58+x62 <=1 
C1421: x58+x66-y58_66 <=1 
C1422: x58+x67-y58_67 <=1 
C1423: x58+x68 <=1 
C1424: x58+x69 <=1 
C1425: x59+x63-y59_63 <=1 
C1426: x59+x64 <=1 
C1427: x59+x65-y59_65 <=1 
C1428: x59+x66-y59_66 <=1 
C1429: x59+x67-y59_67 <=1 
C1430: x59+x68 <=1 
C1431: x59+x69 <=1 
C1432: x60+x64-y60_64 <=1 
C1433: x60+x67 <=1 
C1434: x60+x69 <=1 
C1435: x61+x63 <=1 
C1436: x61+x64-y61_64 <=1 
C1437: x61+x66 <=1 
C1438: x62+x63 <=1 
C1439: x62+x64 <=1 
C1440: x62+x65 <=1 
C1441: x62+x66 <=1 
C1442: x62+x68 <=1 
C1443: x62+x69-y62_69 <=1 
C1444: x63+x64-y63_64 <=1 
C1445: x63+x65-y63_65 <=1 
C1446: x63+x68-y63_68 <=1 
C1447: x63+x69 <=1 
C1448: x64+x65 <=1 
C1449: x64+x66-y64_66 <=1 
C1450: x64+x69 <=1 
C1451: x65+x66 <=1 
C1452: x65+x68-y65_68 <=1 
C1453: x65+x69 <=1 
C1454: x66+x67 <=1 
C1455: x67+x68 <=1 
C1456: x67+x69 <=1 
C1457: x68+x69-y68_69 <=1 

binary
x0
x1
x2
x3
x4
x5
x6
x7
x8
x9
x10
x11
x12
x13
x14
x15
x16
x17
x18
x19
x20
x21
x22
x23
x24
x25
x26
x27
x28
x29
x30
x31
x32
x33
x34
x35
x36
x37
x38
x39
x40
x41
x42
x43
x44
x45
x46
x47
x48
x49
x50
x51
x52
x53
x54
x55
x56
x57
x58
x59
x60
x61
x62
x63
x64
x65
x66
x67
x68
x69
